38 38
19
3 3 24 35
3 4 31 0
3 5 28 19
3 6 28 13
3 7 31 13
3 8 31 30
3 9 31 4
3 10 31 20
3 11 24 24
3 13 28 0
4 3 27 24
4 5 34 33
4 6 34 15
4 8 24 16
4 11 27 27
4 12 34 21
4 15 34 0
4 16 24 0
24 38 0 0
